0 98 102
1 100 104
2 91 104
3 97 102
4 98 100
5 87 99
6 90 100
7 92 99
8 90 100
9 92 99
10 99 100
11 94 99
12 71 101
13 89 98
14 87 95
15 76 94
16 66 92
17 82 91
18 86 88
19 87 90
20 88 87
21 80 82
22 81 86
23 73 84
24 77 83
25 74 80
26 71 79
27 57 75
28 72 77
29 73 76
30 53 77
31 45 76
32 66 75
33 58 71
34 63 68
35 61 64
36 38 60
37 49 57
38 44 54
39 51 52
40 47 50
41 28 48
42 50 49
43 42 47
44 48 47
45 47 47
46 40 45
47 41 46
48 40 44
49 33 41
50 35 41
51 23 40
52 33 39
53 40 39
54 34 41
55 26 39
56 32 37
57 34 36
58 35 37
59 32 35
60 24 33
61 30 30
62 25 31
63 28 31
64 27 27
65 20 24
66 17 25
67 10 24
68 8 24
69 21 23
70 16 21
71 19 21
72 14 20
73 17 17
74 13 16
75 12 16
76 9 14
77 5 15
78 12 12
79 5 8
80 7 8
81 4 8
82 3 6
83 1 4
84 2 4
85 1 3
86 2 2
87 1 0
88 2 1
89 1 0
90 2 1
91 1 0
92 2 1
93 1 0
94 2 1
95 1 0
96 2 1
97 1 0
98 2 1
99 1 0
100 2 1
101 1 0
102 1 1

